N = 6;
H = 5;
T = 2;

avail = array3d(1..N, 1..H, 1..T, [1, 1, 2, 7, 2, 8, 9, 5, 5, 7, 9, 5, 6, 9, 3, 5, 10, 7, 7, 0, 7, 0, 6, 3, 5, 7, 5, 6, 9, 3, 7, 4, 7, 8, 3, 2, 6, 7, 2, 7, 7, 8, 1, 3, 8, 5, 10, 4, 8, 2, 9, 10, 10, 5, 8, 0, 8, 6, 7, 8]);

r = array2d(1..H, 1..T, [2, 3, 1, 1, 0, 2, 1, 1, 1, 1]);
